&CONTROL
    calculation = 'bands'
    prefix = 'si_bands'
    outdir = './tmp'
    pseudo_dir = '/home/niel/git/DFT_Tutorial/qe_workshop_complete/pseudopotentials/PBE'
/
&SYSTEM
    ibrav = 0
    nat = 2
    ntyp = 1
    ecutwfc = 40
    ecutrho = 320
    nbnd = 12
/
&ELECTRONS
/
ATOMIC_SPECIES
    Si  28.0855  Si.pbe-n-rrkjus_psl.1.0.0.UPF

CELL_PARAMETERS angstrom
  0.0000000000 2.7150000000 2.7150000000
  2.7150000000 0.0000000000 2.7150000000
  2.7150000000 2.7150000000 0.0000000000

ATOMIC_POSITIONS angstrom
  Si 0.0000000000 0.0000000000 0.0000000000
  Si 1.3575000000 1.3575000000 1.3575000000

K_POINTS crystal_b
3
0.0 0.0 0.0 20
0.5 0.0 0.5 20
0.0 0.0 0.0 1
