&CONTROL
   calculation = 'scf'
   prefix = 'si_ecut25'
   outdir = './tmp'
   pseudo_dir = '../../pseudopotentials/PBE'
   verbosity = 'high'
   tprnfor = .true.
   tstress = .true.
/
&SYSTEM
   ibrav = 0
   nat = 2
   ntyp = 1
   ecutwfc = 25.0
   ecutrho = 200.0
   occupations = 'smearing'
   smearing = 'cold'
   degauss = 0.01
/
&ELECTRONS
   conv_thr = 1e-08
/
ATOMIC_SPECIES
 Si 28.085000 Si.pbe-n-rrkjus_psl.1.0.0.UPF
K_POINTS {automatic}
 6 6 6 0 0 0
CELL_PARAMETERS {angstrom}
 0.000000000000 2.715000000000 2.715000000000
 2.715000000000 0.000000000000 2.715000000000
 2.715000000000 2.715000000000 0.000000000000
ATOMIC_POSITIONS {angstrom}
 Si 0.0000000000 0.0000000000 0.0000000000
 Si 1.3575000000 1.3575000000 1.3575000000
