&CONTROL
    calculation = 'scf'
    prefix = 'si_test'
    outdir = './tmp'
    pseudo_dir = '/home/niel/git/DFT_Tutorial/qe_workshop_complete/pseudopotentials/PBE'
/
&SYSTEM
    ibrav = 2
    celldm(1) = 10.26
    nat = 2
    ntyp = 1
    ecutwfc = 30.0
    ecutrho = 240.0
/
&ELECTRONS
    conv_thr = 1.0e-6
    mixing_beta = 0.7
/
ATOMIC_SPECIES
    Si  28.0855  Si.pbe-n-rrkjus_psl.1.0.0.UPF

ATOMIC_POSITIONS {alat}
    Si  0.00  0.00  0.00
    Si  0.25  0.25  0.25

K_POINTS {automatic}
    4 4 4 1 1 1
