&CONTROL
    calculation = 'scf'
    prefix = 'test'
    outdir = './tmp'
    pseudo_dir = '/home/niel/git/DFT_Tutorial/qe_workshop_complete/pseudopotentials/PBE'
    tprnfor = .true.
/
&SYSTEM
    ibrav = 0
    nat = 2
    ntyp = 1
    ecutwfc = 40
    ecutrho = 175.0
/
&ELECTRONS
    conv_thr = 1.0e-6
/
ATOMIC_SPECIES
    Si  28.0850  Si.pbe-n-rrkjus_psl.1.0.0.UPF

CELL_PARAMETERS angstrom
  0.0000000000  2.7150000000  2.7150000000
  2.7150000000  0.0000000000  2.7150000000
  2.7150000000  2.7150000000  0.0000000000

ATOMIC_POSITIONS angstrom
  Si  0.0000000000  0.0000000000  0.0000000000
  Si  1.3575000000  1.3575000000  1.3575000000

K_POINTS automatic
  4 4 4 1 1 1
